
Gurobi 11.0.3 (linux64) logging started Mon Aug 25 14:11:42 2025

Set parameter LogFile to value "/home/yihong/Coding/OR_SUC/SUC_epstheta_results_bigM100000_thread4/case24_ieee_rts_theta0.1_epsilon0.1_gurobi_seed210000_num_gen100_N_WDR50_load_scaling_factor1_proposed_theta_T16quadra_cost_bc1.03.txt"
Set parameter TimeLimit to value 3600
Gurobi Optimizer version 11.0.3 build v11.0.3rc0 (linux64 - "Ubuntu 20.04.6 LTS")

CPU model: AMD EPYC 7532 32-Core Processor, instruction set [SSE2|AVX|AVX2]
Thread count: 64 physical cores, 128 logical processors, using up to 4 threads

Academic license 2399124 - for non-commercial use only - registered to yi___@ed.ac.uk
Optimize a model with 38156 rows, 19891 columns and 876566 nonzeros
Model fingerprint: 0x36f7b2a8
Model has 1600 quadratic constraints
Variable types: 18291 continuous, 1600 integer (1600 binary)
Coefficient statistics:
  Matrix range     [3e-04, 2e+03]
  QMatrix range    [2e-03, 8e-03]
  QLMatrix range   [3e-01, 6e+01]
  Objective range  [1e+00, 1e+00]
  Bounds range     [1e+00, 1e+00]
  RHS range        [1e+00, 9e+03]
Presolve removed 31279 rows and 8517 columns
Presolve time: 0.27s
Presolved: 6877 rows, 11374 columns, 37941 nonzeros
Presolved model has 1600 quadratic constraint(s)
Variable types: 9774 continuous, 1600 integer (1600 binary)

Root relaxation: objective 1.850394e+04, 5649 iterations, 0.16 seconds (0.21 work units)

    Nodes    |    Current Node    |     Objective Bounds      |     Work
 Expl Unexpl |  Obj  Depth IntInf | Incumbent    BestBd   Gap | It/Node Time

H    0     0                    428033.39293 18503.9384  95.7%     -    0s
*    0     0               0    428033.39293 18503.9384  95.7%     -    0s
     0     0 201491.626    0  512 428033.393 201491.626  52.9%     -    0s
     0     0 390553.781    0  128 428033.393 390553.781  8.76%     -    1s
     0     0 390646.081    0   95 428033.393 390646.081  8.73%     -    1s
     0     0 390649.104    0   64 428033.393 390649.104  8.73%     -    1s
     0     0 390649.656    0   47 428033.393 390649.656  8.73%     -    1s
     0     0 390649.920    0   46 428033.393 390649.920  8.73%     -    2s
     0     0 390650.590    0   48 428033.393 390650.590  8.73%     -    2s
     0     0 390650.590    0   47 428033.393 390650.590  8.73%     -    2s
     0     0 390650.723    0   47 428033.393 390650.723  8.73%     -    2s
     0     2 390650.723    0   47 428033.393 390650.723  8.73%     -    2s
   146   177 390759.602   30   18 428033.393 390658.400  8.73%  38.0    5s
H  306   273                    390834.90657 390658.917  0.05%  35.9    6s
*  306   273              17    390834.90657 390658.917  0.05%  35.9    6s

Cutting planes:
  Gomory: 22
  Lift-and-project: 5
  Implied bound: 189
  MIR: 31
  Flow cover: 165
  RLT: 232
  Relax-and-lift: 104

Explored 353 nodes (27401 simplex iterations) in 6.82 seconds (8.44 work units)
Thread count was 4 (of 128 available processors)

Solution count 3: 390835 390835 428033 

Optimal solution found (tolerance 1.00e-03)
Warning: max constraint violation (2.3826e-08) exceeds tolerance
Best objective 3.908349065650e+05, best bound 3.906589173235e+05, gap 0.0450%

Gurobi 11.0.3 (linux64) logging started Mon Aug 25 14:11:50 2025

Set parameter LogFile to value "/home/yihong/Coding/OR_SUC/SUC_epstheta_results_bigM100000_thread4/case24_ieee_rts_theta0.1_epsilon0.1_gurobi_seed210000_num_gen100_N_WDR50_load_scaling_factor1_proposed_theta_T16quadra_cost_bc1.03.txt"
Set parameter TimeLimit to value 3600
Gurobi Optimizer version 11.0.3 build v11.0.3rc0 (linux64 - "Ubuntu 20.04.6 LTS")

CPU model: AMD EPYC 7532 32-Core Processor, instruction set [SSE2|AVX|AVX2]
Thread count: 64 physical cores, 128 logical processors, using up to 4 threads

Academic license 2399124 - for non-commercial use only - registered to yi___@ed.ac.uk
Optimize a model with 38157 rows, 19892 columns and 881527 nonzeros
Model fingerprint: 0x4411f8bb
Model has 1600 quadratic constraints
Variable types: 18292 continuous, 1600 integer (1600 binary)
Coefficient statistics:
  Matrix range     [3e-04, 2e+03]
  QMatrix range    [2e-03, 8e-03]
  QLMatrix range   [3e-01, 6e+01]
  Objective range  [1e+00, 1e+00]
  Bounds range     [1e-01, 1e+00]
  RHS range        [1e+00, 4e+05]
Presolve removed 28257 rows and 7013 columns
Presolve time: 0.32s
Presolved: 9900 rows, 12879 columns, 52232 nonzeros
Presolved model has 1600 quadratic constraint(s)
Variable types: 11275 continuous, 1604 integer (1604 binary)

Root relaxation: objective 9.640682e+00, 9947 iterations, 0.25 seconds (0.25 work units)

    Nodes    |    Current Node    |     Objective Bounds      |     Work
 Expl Unexpl |  Obj  Depth IntInf | Incumbent    BestBd   Gap | It/Node Time

     0     0    9.64068    0    1          -    9.64068      -     -    0s
     0     0    3.65575    0   41          -    3.65575      -     -    1s
     0     0    3.65288    0   41          -    3.65288      -     -    1s
     0     0    0.75867    0   45          -    0.75867      -     -    2s
     0     0    0.74043    0   34          -    0.74043      -     -    2s
     0     0    0.74036    0   34          -    0.74036      -     -    2s
     0     0    0.74034    0   50          -    0.74034      -     -    2s
     0     0    0.74032    0   50          -    0.74032      -     -    2s
     0     0    0.74032    0   50          -    0.74032      -     -    2s
     0     0    0.74032    0   50          -    0.74032      -     -    2s
H    0     0                       0.7364525    0.74032  0.53%     -    3s
     0     0    0.74032    0   13    0.73645    0.74032  0.53%     -    6s
     0     0    0.74031    0   16    0.73645    0.74031  0.52%     -    6s
     0     0    0.74009    0   19    0.73645    0.74009  0.49%     -    7s
     0     0    0.74009    0   16    0.73645    0.74009  0.49%     -    7s
     0     0    0.74009    0   17    0.73645    0.74009  0.49%     -    7s
     0     0    0.74001    0   21    0.73645    0.74001  0.48%     -    7s
     0     0    0.74001    0   21    0.73645    0.74001  0.48%     -    7s
     0     0    0.73997    0   21    0.73645    0.73997  0.48%     -    7s
     0     0    0.73993    0   21    0.73645    0.73993  0.47%     -    7s
     0     0    0.73992    0   15    0.73645    0.73992  0.47%     -    7s
     0     0    0.73992    0   15    0.73645    0.73992  0.47%     -    8s
     0     0    0.73992    0    7    0.73645    0.73992  0.47%     -    8s
     0     0    0.73992    0   11    0.73645    0.73992  0.47%     -    9s
     0     0    0.73992    0    9    0.73645    0.73992  0.47%     -    9s
     0     0    0.73992    0    9    0.73645    0.73992  0.47%     -    9s
     0     0    0.73992    0   11    0.73645    0.73992  0.47%     -    9s
     0     0    0.73992    0   11    0.73645    0.73992  0.47%     -    9s
     0     0    0.73992    0   11    0.73645    0.73992  0.47%     -    9s
     0     0    0.73992    0   11    0.73645    0.73992  0.47%     -    9s
     0     0    0.73992    0   11    0.73645    0.73992  0.47%     -    9s
     0     0    0.73992    0   11    0.73645    0.73992  0.47%     -   10s
     0     2    0.73992    0   11    0.73645    0.73992  0.47%     -   10s
H   26    24                       0.7390180    0.73992  0.12%  20.0   10s
*   26    24               7       0.7390180    0.73992  0.12%  20.4   10s
H   32    20                       0.7399012    0.73990  0.00%  17.8   10s
*   32    20               5       0.7399012    0.73990  0.00%  17.9   10s

Cutting planes:
  Gomory: 2
  Implied bound: 3
  MIR: 15
  StrongCG: 1
  Flow cover: 13
  Inf proof: 1

Explored 39 nodes (36130 simplex iterations) in 11.05 seconds (9.77 work units)
Thread count was 4 (of 128 available processors)

Solution count 4: 0.739901 0.739901 0.739018 0.736452 

Optimal solution found (tolerance 1.00e-03)
Warning: max constraint violation (1.8777e-05) exceeds tolerance
Best objective 7.399011937558e-01, best bound 7.399049775136e-01, gap 0.0005%
